Route #1: 58 22 55 33 24
Route #2: 31 46 23 7
Route #3: 21 61 60 37 16 54
Route #4: 8 35 27 6 12
Route #5: 17 56 29 40 25 15
Route #6: 53 14 2 9 41 1 39 45 49
Route #7: 59 10 19 42 3 5 18
Route #8: 52 43 30 48
Route #9: 36 38 4 26 13 20
Route #10: 50 62 51 44 47 11 34 32 57 28
Cost 1318
Time 0.115115
